* Problem:    p2m2p1m1p0n100-pow2-prescaled
* Class:      LP
* Rows:       1
* Columns:    101
* Non-zeros:  101
* Format:     Free MPS
*
NAME p2m2p1m1p0n100-pow2-prescaled
ROWS
 N R0000000
 E R0000001
COLUMNS
 c0 R0000000 13134 R0000001 13134
 c1 R0000000 13126 R0000001 13126
 c2 R0000000 14353 R0000001 14353
 c3 R0000000 11135 R0000001 11135
 c4 R0000000 13124 R0000001 13124
 c5 R0000000 9785 R0000001 9785
 c6 R0000000 8174 R0000001 8174
 c7 R0000000 13126 R0000001 13126
 c8 R0000000 12741 R0000001 12741
 c9 R0000000 8176 R0000001 8176
 c10 R0000000 12740 R0000001 12740
 c11 R0000000 11136 R0000001 11136
 c12 R0000000 12744 R0000001 12744
 c13 R0000000 8176 R0000001 8176
 c14 R0000000 9783 R0000001 9783
 c15 R0000000 12742 R0000001 12742
 c16 R0000000 11135 R0000001 11135
 c17 R0000000 12745 R0000001 12745
 c18 R0000000 14352 R0000001 14352
 c19 R0000000 9782 R0000001 9782
 c20 R0000000 13130 R0000001 13130
 c21 R0000000 11136 R0000001 11136
 c22 R0000000 13126 R0000001 13126
 c23 R0000000 12743 R0000001 12743
 c24 R0000000 14350 R0000001 14350
 c25 R0000000 11134 R0000001 11134
 c26 R0000000 8176 R0000001 8176
 c27 R0000000 12740 R0000001 12740
 c28 R0000000 13126 R0000001 13126
 c29 R0000000 9782 R0000001 9782
 c30 R0000000 12743 R0000001 12743
 c31 R0000000 14352 R0000001 14352
 c32 R0000000 12741 R0000001 12741
 c33 R0000000 13132 R0000001 13132
 c34 R0000000 12743 R0000001 12743
 c35 R0000000 13128 R0000001 13128
 c36 R0000000 9785 R0000001 9785
 c37 R0000000 9782 R0000001 9782
 c38 R0000000 12741 R0000001 12741
 c39 R0000000 9782 R0000001 9782
 c40 R0000000 14350 R0000001 14350
 c41 R0000000 11133 R0000001 11133
 c42 R0000000 13124 R0000001 13124
 c43 R0000000 11135 R0000001 11135
 c44 R0000000 8176 R0000001 8176
 c45 R0000000 9781 R0000001 9781
 c46 R0000000 13124 R0000001 13124
 c47 R0000000 11135 R0000001 11135
 c48 R0000000 8175 R0000001 8175
 c49 R0000000 12745 R0000001 12745
 c50 R0000000 11133 R0000001 11133
 c51 R0000000 13132 R0000001 13132
 c52 R0000000 11135 R0000001 11135
 c53 R0000000 11132 R0000001 11132
 c54 R0000000 12743 R0000001 12743
 c55 R0000000 12743 R0000001 12743
 c56 R0000000 14349 R0000001 14349
 c57 R0000000 9784 R0000001 9784
 c58 R0000000 12740 R0000001 12740
 c59 R0000000 9783 R0000001 9783
 c60 R0000000 8174 R0000001 8174
 c61 R0000000 9785 R0000001 9785
 c62 R0000000 13134 R0000001 13134
 c63 R0000000 8176 R0000001 8176
 c64 R0000000 8175 R0000001 8175
 c65 R0000000 8174 R0000001 8174
 c66 R0000000 8174 R0000001 8174
 c67 R0000000 13128 R0000001 13128
 c68 R0000000 11135 R0000001 11135
 c69 R0000000 13128 R0000001 13128
 c70 R0000000 9781 R0000001 9781
 c71 R0000000 13130 R0000001 13130
 c72 R0000000 12740 R0000001 12740
 c73 R0000000 14353 R0000001 14353
 c74 R0000000 8176 R0000001 8176
 c75 R0000000 11132 R0000001 11132
 c76 R0000000 14350 R0000001 14350
 c77 R0000000 8172 R0000001 8172
 c78 R0000000 14353 R0000001 14353
 c79 R0000000 8175 R0000001 8175
 c80 R0000000 8171 R0000001 8171
 c81 R0000000 14353 R0000001 14353
 c82 R0000000 9783 R0000001 9783
 c83 R0000000 8175 R0000001 8175
 c84 R0000000 13134 R0000001 13134
 c85 R0000000 8173 R0000001 8173
 c86 R0000000 9783 R0000001 9783
 c87 R0000000 13128 R0000001 13128
 c88 R0000000 9781 R0000001 9781
 c89 R0000000 12742 R0000001 12742
 c90 R0000000 14353 R0000001 14353
 c91 R0000000 11133 R0000001 11133
 c92 R0000000 9783 R0000001 9783
 c93 R0000000 11132 R0000001 11132
 c94 R0000000 12743 R0000001 12743
 c95 R0000000 12743 R0000001 12743
 c96 R0000000 12740 R0000001 12740
 c97 R0000000 9782 R0000001 9782
 c98 R0000000 9782 R0000001 9782
 c99 R0000000 14354 R0000001 14354
 c100 R0000001 -8192
RHS
 RHS1 R0000001 80424
BOUNDS
 UP BND1 c0 0.5
 UP BND1 c1 0.5
 UP BND1 c2 1
 UP BND1 c3 1
 UP BND1 c4 0.5
 UP BND1 c5 1
 UP BND1 c6 1
 UP BND1 c7 0.5
 UP BND1 c8 1
 UP BND1 c9 1
 UP BND1 c10 1
 UP BND1 c11 1
 UP BND1 c12 1
 UP BND1 c13 1
 UP BND1 c14 1
 UP BND1 c15 1
 UP BND1 c16 1
 UP BND1 c17 1
 UP BND1 c18 1
 UP BND1 c19 1
 UP BND1 c20 0.5
 UP BND1 c21 1
 UP BND1 c22 0.5
 UP BND1 c23 1
 UP BND1 c24 1
 UP BND1 c25 1
 UP BND1 c26 1
 UP BND1 c27 1
 UP BND1 c28 0.5
 UP BND1 c29 1
 UP BND1 c30 1
 UP BND1 c31 1
 UP BND1 c32 1
 UP BND1 c33 0.5
 UP BND1 c34 1
 UP BND1 c35 0.5
 UP BND1 c36 1
 UP BND1 c37 1
 UP BND1 c38 1
 UP BND1 c39 1
 UP BND1 c40 1
 UP BND1 c41 1
 UP BND1 c42 0.5
 UP BND1 c43 1
 UP BND1 c44 1
 UP BND1 c45 1
 UP BND1 c46 0.5
 UP BND1 c47 1
 UP BND1 c48 1
 UP BND1 c49 1
 UP BND1 c50 1
 UP BND1 c51 0.5
 UP BND1 c52 1
 UP BND1 c53 1
 UP BND1 c54 1
 UP BND1 c55 1
 UP BND1 c56 1
 UP BND1 c57 1
 UP BND1 c58 1
 UP BND1 c59 1
 UP BND1 c60 1
 UP BND1 c61 1
 UP BND1 c62 0.5
 UP BND1 c63 1
 UP BND1 c64 1
 UP BND1 c65 1
 UP BND1 c66 1
 UP BND1 c67 0.5
 UP BND1 c68 1
 UP BND1 c69 0.5
 UP BND1 c70 1
 UP BND1 c71 0.5
 UP BND1 c72 1
 UP BND1 c73 1
 UP BND1 c74 1
 UP BND1 c75 1
 UP BND1 c76 1
 UP BND1 c77 1
 UP BND1 c78 1
 UP BND1 c79 1
 UP BND1 c80 1
 UP BND1 c81 1
 UP BND1 c82 1
 UP BND1 c83 1
 UP BND1 c84 0.5
 UP BND1 c85 1
 UP BND1 c86 1
 UP BND1 c87 0.5
 UP BND1 c88 1
 UP BND1 c89 1
 UP BND1 c90 1
 UP BND1 c91 1
 UP BND1 c92 1
 UP BND1 c93 1
 UP BND1 c94 1
 UP BND1 c95 1
 UP BND1 c96 1
 UP BND1 c97 1
 UP BND1 c98 1
 UP BND1 c99 1
 UP BND1 c100 1.2207031E-4
ENDATA
